param N := 50;
param U := 50;

param CAPACITY := 100;

param WEIGHT :=
1	96
2	93
3	86
4	86
5	85
6	83
7	80
8	80
9	80
10	79
11	77
12	68
13	67
14	64
15	64
16	63
17	60
18	57
19	55
20	54
21	54
22	54
23	54
24	52
25	52
26	52
27	51
28	44
29	43
30	41
31	41
32	39
33	39
34	39
35	38
36	36
37	36
38	35
39	34
40	34
41	31
42	31
43	29
44	29
45	28
46	24
47	23
48	22
49	22
50	20
;

